Route #1: 43 23 50 22 38 9 12 5 40
Route #2: 46 28 51 14 44 17 8 10 18
Route #3: 19 7 15 4 39 26 21 47
Route #4: 41 45 42 29 37 24 6 53
Route #5: 25 1 52 27 16 35 32 13
Route #6: 36 49 33 2 54 34 30 31 20 55 11 3
Route #7: 48
Cost 720